# Problem from Gecode/examples/minesweeper.cc  problem 6

param r := 8;
param c := 8;
param game: 1 2 3 4 5 6 7 8 :=
     1  . 3 2 . . 1 . . 
     2  . . . . 1 . . 3 
     3  3 . . 2 . . . 4 
     4  . 5 . . . 5 . . 
     5  . . 6 . . . 5 . 
     6  3 . . . 5 . . 4 
     7  2 . . 5 . . . . 
     8  . . 2 . . 3 4 . 
;
